data/solutions/recovery/degenerate/intermediate/binding/degenerate_intermediate_instance37/97.sol
Elapsed time: 0.06
Upper bound: 204665.0
Planning weighted value: 8583002945.0
C[0]=204665.0
C[1]=194357.0
C[2]=181609.0
C[3]=180499.0
C[4]=176490.0
C[5]=174218.0
C[6]=174081.0
C[7]=172236.0
C[8]=170095.0
C[9]=162715.0
C[10]=127407.0
C[11]=124829.0
C[12]=124454.0
C[13]=122353.0
C[14]=0.0
C[15]=0.0
y[0]=9
y[1]=6
y[2]=10
y[3]=2
y[4]=4
y[5]=10
y[6]=4
y[7]=5
y[8]=13
y[9]=2
y[10]=9
y[11]=4
y[12]=2
y[13]=3
y[14]=8
y[15]=7
y[16]=9
y[17]=9
y[18]=11
y[19]=9
y[20]=1
y[21]=11
y[22]=2
y[23]=7
y[24]=6
y[25]=0
y[26]=12
y[27]=8
y[28]=11
y[29]=13
y[30]=1
y[31]=13
y[32]=4
y[33]=0
y[34]=1
y[35]=8
y[36]=11
y[37]=12
y[38]=8
y[39]=13
y[40]=4
y[41]=6
y[42]=3
y[43]=7
y[44]=0
y[45]=10
y[46]=13
y[47]=5
y[48]=2
y[49]=12
y[50]=6
y[51]=1
y[52]=8
y[53]=5
y[54]=7
y[55]=10
y[56]=0
y[57]=3
y[58]=5
y[59]=9
y[60]=2
y[61]=7
y[62]=1
y[63]=6
y[64]=0
