data/solutions/recovery/degenerate/intermediate/binding/degenerate_intermediate_instance37/97.log

Log started (V12.6.3.0) Sun Apr 22 12:33:44 2018

New value for default parallel thread count: 1

Problem '/tmp/tmphrh58U.pyomo.lp' read.
Read time = 0.02 sec. (0.77 ticks)

Problem name         : /tmp/tmphrh58U.pyomo.lp
Objective sense      : Minimize
Variables            :    1058  [Nneg: 1,  Binary: 1040,  General Integer: 17]
Objective nonzeros   :       1
Linear constraints   :     165  [Less: 81,  Equal: 84]
  Nonzeros           :   54877
  RHS nonzeros       :      66

Variables            : Min LB: 0.000000         Max UB: 1.000000       
Objective nonzeros   : Min   : 1.000000         Max   : 1.000000       
Linear constraints   :
  Nonzeros           : Min   : 1.000000         Max   : 128311.0       
  RHS nonzeros       : Min   : 1.000000         Max   : 1.000000       
Tried aggregator 2 times.
MIP Presolve eliminated 127 rows and 903 columns.
Aggregator did 14 substitutions.
Reduced MIP has 24 rows, 141 columns, and 294 nonzeros.
Reduced MIP has 140 binaries, 1 generals, 0 SOSs, and 0 indicators.
Presolve time = 0.00 sec. (4.06 ticks)
Found incumbent of value 756044.000000 after 0.00 sec. (5.43 ticks)
Probing time = 0.00 sec. (0.18 ticks)
Cover probing fixed 0 vars, tightened 2 bounds.
Tried aggregator 1 time.
Reduced MIP has 24 rows, 141 columns, and 294 nonzeros.
Reduced MIP has 140 binaries, 1 generals, 0 SOSs, and 0 indicators.
Presolve time = 0.00 sec. (0.23 ticks)
Probing time = 0.00 sec. (0.18 ticks)
Clique table members: 10.
MIP emphasis: balance optimality and feasibility.
MIP search method: dynamic search.
Parallel mode: none, using 1 thread.
Root relaxation solution time = 0.00 sec. (0.13 ticks)

        Nodes                                         Cuts/
   Node  Left     Objective  IInf  Best Integer    Best Bound    ItCnt     Gap

*     0+    0                       756044.0000   194357.0000            74.29%
      0     0   194357.0000    13   756044.0000   194357.0000       23   74.29%
*     0+    0                       257619.0000   194357.0000            24.56%
      0     0   194357.0000     9   257619.0000       Cuts: 7       35   24.56%
*     0+    0                       222656.0000   194357.0000            12.71%
      0     0   194357.0000     4   222656.0000      Cuts: 13       47   12.71%
*     0+    0                       215577.0000   194357.0000             9.84%
*     0+    0                       215202.0000   194357.0000             9.69%
*     0+    0                       204665.0000   194357.0000             5.04%
      0     0        cutoff         204665.0000   194357.0000       47    5.04%
Elapsed time = 0.01 sec. (8.02 ticks, tree = 0.01 MB, solutions = 5)

Implied bound cuts applied:  2
Mixed integer rounding cuts applied:  8
Gomory fractional cuts applied:  6

Root node processing (before b&c):
  Real time             =    0.01 sec. (8.08 ticks)
Sequential b&c:
  Real time             =    0.00 sec. (0.01 ticks)
                          ------------
Total (root+branch&cut) =    0.01 sec. (8.09 ticks)

Solution pool: 5 solutions saved.

MIP - Integer optimal solution:  Objective =  2.0466500000e+05
Solution time =    0.01 sec.  Iterations = 47  Nodes = 0
Deterministic time = 8.09 ticks  (933.79 ticks/sec)


Incumbent solution written to file '/tmp/tmpTdq_tE.cplex.sol'.
